c 70_3_checker_6cl.cnf
c
c field = 70
c formula set type = 3_checker_6cl
c
p cnf 6 58
132 
134 
136 
-131 
-128 
-140 
133 
135 
137 
-130 
-129 
-141 
132 
134 
136 
-141 
-130 
-142 
133 
135 
137 
-140 
-131 
-143 
134 
136 
140 
-133 
-130 
-142 
135 
137 
141 
-132 
-131 
-143 
134 
136 
140 
-143 
-132 
-144 
135 
137 
141 
-142 
-133 
-145 
136 
140 
142 
-135 
-132 
-144 
137 
141 
143 
-134 
-133 
-145 
136 
140 
142 
-145 
-134 
-146 
137 
141 
143 
-144 
-135 
-147 
140 
142 
144 
-137 
-134 
-146 
141 
143 
145 
-136 
-135 
-147 
140 
142 
144 
-147 
-136 
-148 
141 
143 
145 
-146 
-137 
-149 
48 
78 
108 
-169 
-18 
-198 
49 
79 
109 
-168 
-19 
-199 
78 
108 
168 
-49 
-18 
-198 
79 
109 
169 
-48 
-19 
-199 
78 
108 
168 
-199 
-48 
-228 
79 
109 
169 
-198 
-49 
-229 
108 
168 
198 
-79 
-48 
-228 
109 
169 
199 
-78 
-49 
-229 
108 
168 
198 
-229 
-78 
-258 
109 
169 
199 
-228 
-79 
-259 
168 
198 
228 
-109 
-78 
-258 
169 
199 
229 
-108 
-79 
-259 
168 
198 
228 
-259 
-108 
-288 
169 
199 
229 
-258 
-109 
-289 
42 
74 
106 
-171 
-10 
-202 
43 
75 
107 
-170 
-11 
-203 
74 
106 
170 
-43 
-10 
-202 
75 
107 
171 
-42 
-11 
-203 
74 
106 
170 
-203 
-42 
-234 
75 
107 
171 
-202 
-43 
-235 
106 
170 
202 
-75 
-42 
-234 
107 
171 
203 
-74 
-43 
-235 
106 
170 
202 
-235 
-74 
-266 
107 
171 
203 
-234 
-75 
-267 
170 
202 
234 
-107 
-74 
-266 
171 
203 
235 
-106 
-75 
-267 
170 
202 
234 
-267 
-106 
-298 
171 
203 
235 
-266 
-107 
-299 
54 
82 
110 
-167 
-26 
-194 
55 
83 
111 
-166 
-27 
-195 
82 
110 
166 
-55 
-26 
-194 
83 
111 
167 
-54 
-27 
-195 
82 
110 
166 
-195 
-54 
-222 
83 
111 
167 
-194 
-55 
-223 
110 
166 
194 
-83 
-54 
-222 
111 
167 
195 
-82 
-55 
-223 
110 
166 
194 
-223 
-82 
-250 
111 
167 
195 
-222 
-83 
-251 
166 
194 
222 
-111 
-82 
-250 
167 
195 
223 
-110 
-83 
-251 
166 
194 
222 
-251 
-110 
-278 
167 
195 
223 
-250 
-111 
-279 
